[TITLE]
Simple Water Distribution Test

[JUNCTIONS]
;ID   Elev  Demand   Pattern
J1    100   0        ;
J2    95    10       1        ;

[RESERVOIRS]
;ID   Head   Pattern
R1    110    ;

[TANKS]
;ID   Elevation   InitLevel   MinLevel   MaxLevel   Diameter   MinVol   VolCurve

[PIPES]
;ID   Node1   Node2   Length   Diameter   Roughness   MinorLoss   Status
P1    R1      J1      1000     200        100         0           Open
P2    J1      J2      1000     200        100         0           Open

[PATTERNS]
;ID   Multipliers
1     1.0   1.2   1.4   1.6   1.4   1.2
1     1.0   0.8   0.6   0.4   0.6   0.8

[OPTIONS]
Units              LPS
Headloss          H-W
Specific Gravity   1.0
Viscosity         1.0
Trials            40
Accuracy          0.001
Pattern           1
Demand Multiplier 1.0
Emitter Exponent  0.5
Quality           None

[TIMES]
Duration            24:00
Hydraulic Timestep  1:00
Pattern Timestep    4:00
Pattern Start       0:00
Report Timestep     1:00
Report Start        0:00
Start ClockTime     0:00

[REPORT]
Status            Yes
Summary           No
Page              0

[END]